# Objective value = 74
WA1n 0
WA1p 0
WA2n 1
WA2p 0
WB1n 0
WB1p 1
WC1n 0
WC1p 1
WD1n 1
WD1p 0
WD2n 1
WD2p 0
WE1n 2
WE1p 0
WF1n 0
WF1p 2
WG1n 0
WG1p 2
WH1n 0
WH1p 8
WH2n 0
WH2p 1
WI1n 10
WI1p 0
WI2n 1
WI2p 0
WJ1n 10
WJ1p 0
WJ2n 1
WJ2p 0
WK1n 0
WK1p 10
WK2n 0
WK2p 1
WT1n 0
WT1p 15
5 7
a 0
b 0
c 1
d 1
e 0
f 0
g 0
h 1
i 1
j 1
k 1
l 0
m 0
n 0
o 0
p 1
q 1
r 1
